c Random generated cnf formula, satisfiable: true
p cnf 10 50
-6 10 -1 0
1 -9 6 0
1 5 2 0
2 -9 -1 0
-5 -10 -2 0
10 4 2 0
10 5 6 0
-5 -3 -2 0
5 8 -4 0
-10 -9 3 0
-10 2 6 0
3 -10 6 0
-4 9 7 0
1 -4 10 0
8 9 -2 0
5 -7 -6 0
5 -6 -2 0
-10 5 -7 0
9 -7 1 0
6 1 2 0
7 -8 3 0
-3 -4 10 0
-1 4 -5 0
9 -10 -8 0
-2 -8 7 0
10 -7 8 0
-4 -5 -3 0
5 -7 -9 0
-2 -9 7 0
10 -3 -6 0
-1 -3 4 0
9 4 5 0
-7 -6 -3 0
9 10 -4 0
-7 -3 -5 0
1 10 -5 0
-2 -3 -7 0
2 -4 -1 0
1 -9 -10 0
3 -10 5 0
9 7 -4 0
1 6 2 0
-3 2 7 0
1 -10 -4 0
-7 2 -8 0
9 1 5 0
2 -1 -5 0
4 7 3 0
-3 -5 9 0
7 -8 4 0
